GLPSOL--GLPK LP/MIP Solver 5.0
Parameter(s) specified in the command line:
 --lp ../modeles/15_434.lp --log 15_434.log
Reading problem data from '../modeles/15_434.lp'...
6571 rows, 13050 columns, 45615 non-zeros
6510 integer variables, all of which are binary
19642 lines were read
GLPK Integer Optimizer 5.0
6571 rows, 13050 columns, 45615 non-zeros
6510 integer variables, all of which are binary
Preprocessing...
6450 constraint coefficient(s) were reduced
6571 rows, 13035 columns, 45600 non-zeros
6510 integer variables, all of which are binary
Scaling...
 A: min|aij| =  8.495e-05  max|aij| =  4.000e+00  ratio =  4.709e+04
GM: min|aij| =  6.788e-02  max|aij| =  1.473e+01  ratio =  2.170e+02
EQ: min|aij| =  4.608e-03  max|aij| =  1.000e+00  ratio =  2.170e+02
2N: min|aij| =  3.906e-03  max|aij| =  1.709e+00  ratio =  4.375e+02
Constructing initial basis...
Size of triangular part is 6571
Solving LP relaxation...
GLPK Simplex Optimizer 5.0
6571 rows, 13035 columns, 45600 non-zeros
      0: obj =   3.000000000e+01 inf =   8.545e+02 (31)
Perturbing LP to avoid stalling [199]...
    464: obj =   2.945058562e-01 inf =   0.000e+00 (0)
Removing LP perturbation [1098]...
*  1098: obj =  -3.872948500e+00 inf =   2.753e-14 (0) 1
OPTIMAL LP SOLUTION FOUND
Integer optimization begins...
Long-step dual simplex will be used
+  1098: mip =     not found yet >=              -inf        (1; 0)
+  1101: >>>>>  -3.872948500e+00 >=  -3.872948500e+00 < 0.1% (3; 0)
+  1101: mip =  -3.872948500e+00 >=     tree is empty   0.0% (0; 5)
INTEGER OPTIMAL SOLUTION FOUND
Time used:   0.4 secs
Memory used: 19.2 Mb (20094429 bytes)
